p cnf 790 913
c 82 select(1,22)
c 83 nots(1,22)
c 84 select(1,39)
c 85 nots(1,39)
c 86 reach(39)
c 87 reach(22)
c 88 select(22,1)
c 89 nots(22,1)
c 90 select(22,7)
c 91 nots(22,7)
c 92 select(39,1)
c 93 nots(39,1)
c 94 select(39,5)
c 95 nots(39,5)
c 96 reach(5)
c 97 reach(7)
c 98 select(7,44)
c 99 nots(7,44)
c 100 select(7,22)
c 101 nots(7,22)
c 102 select(5,36)
c 103 nots(5,36)
c 104 select(5,39)
c 105 nots(5,39)
c 106 reach(36)
c 107 reach(44)
c 108 select(44,7)
c 109 nots(44,7)
c 110 select(44,21)
c 111 nots(44,21)
c 112 select(36,5)
c 113 nots(36,5)
c 114 select(36,29)
c 115 nots(36,29)
c 116 reach(29)
c 117 reach(21)
c 118 select(21,14)
c 119 nots(21,14)
c 120 select(21,44)
c 121 nots(21,44)
c 122 select(29,66)
c 123 nots(29,66)
c 124 select(29,36)
c 125 nots(29,36)
c 126 select(29,38)
c 127 nots(29,38)
c 128 reach(38)
c 129 reach(66)
c 130 reach(14)
c 131 select(66,29)
c 132 nots(66,29)
c 133 select(38,29)
c 134 nots(38,29)
c 135 select(14,27)
c 136 nots(14,27)
c 137 select(14,21)
c 138 nots(14,21)
c 139 select(66,69)
c 140 nots(66,69)
c 141 select(38,42)
c 142 nots(38,42)
c 143 reach(42)
c 144 reach(69)
c 145 reach(27)
c 146 select(27,2)
c 147 nots(27,2)
c 148 select(27,14)
c 149 nots(27,14)
c 150 select(69,53)
c 151 nots(69,53)
c 152 select(69,66)
c 153 nots(69,66)
c 154 select(42,38)
c 155 nots(42,38)
c 156 select(27,70)
c 157 nots(27,70)
c 158 select(42,77)
c 159 nots(42,77)
c 160 reach(77)
c 161 reach(70)
c 162 reach(53)
c 163 reach(2)
c 164 select(53,41)
c 165 nots(53,41)
c 166 select(70,27)
c 167 nots(70,27)
c 168 select(77,42)
c 169 nots(77,42)
c 170 select(77,54)
c 171 nots(77,54)
c 172 select(2,16)
c 173 nots(2,16)
c 174 select(2,27)
c 175 nots(2,27)
c 176 select(53,69)
c 177 nots(53,69)
c 178 reach(16)
c 179 reach(54)
c 180 reach(41)
c 181 select(16,2)
c 182 nots(16,2)
c 183 select(41,65)
c 184 nots(41,65)
c 185 select(41,53)
c 186 nots(41,53)
c 187 select(54,77)
c 188 nots(54,77)
c 189 select(54,79)
c 190 nots(54,79)
c 191 select(16,45)
c 192 nots(16,45)
c 193 reach(45)
c 194 reach(79)
c 195 reach(65)
c 196 select(65,12)
c 197 nots(65,12)
c 198 select(65,41)
c 199 nots(65,41)
c 200 select(79,17)
c 201 nots(79,17)
c 202 select(79,54)
c 203 nots(79,54)
c 204 select(45,16)
c 205 nots(45,16)
c 206 select(45,25)
c 207 nots(45,25)
c 208 reach(25)
c 209 reach(17)
c 210 reach(12)
c 211 select(12,65)
c 212 nots(12,65)
c 213 select(12,18)
c 214 nots(12,18)
c 215 select(17,19)
c 216 nots(17,19)
c 217 select(17,79)
c 218 nots(17,79)
c 219 select(25,45)
c 220 nots(25,45)
c 221 select(25,71)
c 222 nots(25,71)
c 223 reach(71)
c 224 reach(19)
c 225 reach(18)
c 226 select(18,12)
c 227 nots(18,12)
c 228 select(19,17)
c 229 nots(19,17)
c 230 select(71,25)
c 231 nots(71,25)
c 232 select(71,59)
c 233 nots(71,59)
c 234 select(18,67)
c 235 nots(18,67)
c 236 select(19,62)
c 237 nots(19,62)
c 238 reach(62)
c 239 reach(67)
c 240 reach(59)
c 241 select(59,50)
c 242 nots(59,50)
c 243 select(67,18)
c 244 nots(67,18)
c 245 select(67,47)
c 246 nots(67,47)
c 247 select(67,60)
c 248 nots(67,60)
c 249 select(62,11)
c 250 nots(62,11)
c 251 select(62,19)
c 252 nots(62,19)
c 253 select(59,71)
c 254 nots(59,71)
c 255 reach(11)
c 256 reach(60)
c 257 reach(47)
c 258 reach(50)
c 259 select(50,34)
c 260 nots(50,34)
c 261 select(47,6)
c 262 nots(47,6)
c 263 select(60,49)
c 264 nots(60,49)
c 265 select(50,59)
c 266 nots(50,59)
c 267 select(47,67)
c 268 nots(47,67)
c 269 select(60,67)
c 270 nots(60,67)
c 271 select(11,62)
c 272 nots(11,62)
c 273 select(11,23)
c 274 nots(11,23)
c 275 reach(23)
c 276 reach(49)
c 277 reach(6)
c 278 reach(34)
c 279 select(34,15)
c 280 nots(34,15)
c 281 select(23,11)
c 282 nots(23,11)
c 283 select(34,50)
c 284 nots(34,50)
c 285 select(6,35)
c 286 nots(6,35)
c 287 select(6,47)
c 288 nots(6,47)
c 289 select(49,60)
c 290 nots(49,60)
c 291 select(49,52)
c 292 nots(49,52)
c 293 select(23,33)
c 294 nots(23,33)
c 295 reach(33)
c 296 reach(52)
c 297 reach(35)
c 298 reach(15)
c 299 select(35,6)
c 300 nots(35,6)
c 301 select(35,31)
c 302 nots(35,31)
c 303 select(52,46)
c 304 nots(52,46)
c 305 select(52,49)
c 306 nots(52,49)
c 307 select(33,23)
c 308 nots(33,23)
c 309 select(15,74)
c 310 nots(15,74)
c 311 select(15,34)
c 312 nots(15,34)
c 313 select(33,57)
c 314 nots(33,57)
c 315 reach(57)
c 316 reach(74)
c 317 reach(46)
c 318 reach(31)
c 319 select(74,15)
c 320 nots(74,15)
c 321 select(74,72)
c 322 nots(74,72)
c 323 select(57,33)
c 324 nots(57,33)
c 325 select(57,56)
c 326 nots(57,56)
c 327 select(31,35)
c 328 nots(31,35)
c 329 select(31,78)
c 330 nots(31,78)
c 331 select(46,52)
c 332 nots(46,52)
c 333 select(46,61)
c 334 nots(46,61)
c 335 reach(61)
c 336 reach(78)
c 337 reach(56)
c 338 reach(72)
c 339 select(72,63)
c 340 nots(72,63)
c 341 select(56,43)
c 342 nots(56,43)
c 343 select(78,20)
c 344 nots(78,20)
c 345 select(78,31)
c 346 nots(78,31)
c 347 select(61,30)
c 348 nots(61,30)
c 349 select(61,46)
c 350 nots(61,46)
c 351 select(72,74)
c 352 nots(72,74)
c 353 select(56,57)
c 354 nots(56,57)
c 355 reach(30)
c 356 reach(20)
c 357 reach(43)
c 358 reach(63)
c 359 select(20,8)
c 360 nots(20,8)
c 361 select(30,13)
c 362 nots(30,13)
c 363 select(63,72)
c 364 nots(63,72)
c 365 select(63,76)
c 366 nots(63,76)
c 367 select(43,56)
c 368 nots(43,56)
c 369 select(43,64)
c 370 nots(43,64)
c 371 select(20,78)
c 372 nots(20,78)
c 373 select(30,61)
c 374 nots(30,61)
c 375 reach(64)
c 376 reach(76)
c 377 reach(13)
c 378 reach(8)
c 379 select(76,4)
c 380 nots(76,4)
c 381 select(76,63)
c 382 nots(76,63)
c 383 select(64,43)
c 384 nots(64,43)
c 385 select(8,20)
c 386 nots(8,20)
c 387 select(8,68)
c 388 nots(8,68)
c 389 select(13,26)
c 390 nots(13,26)
c 391 select(13,30)
c 392 nots(13,30)
c 393 reach(26)
c 394 reach(68)
c 395 reach(4)
c 396 select(68,8)
c 397 nots(68,8)
c 398 select(68,51)
c 399 nots(68,51)
c 400 select(26,13)
c 401 nots(26,13)
c 402 select(4,28)
c 403 nots(4,28)
c 404 select(4,76)
c 405 nots(4,76)
c 406 select(26,32)
c 407 nots(26,32)
c 408 reach(32)
c 409 reach(28)
c 410 reach(51)
c 411 select(28,4)
c 412 nots(28,4)
c 413 select(28,10)
c 414 nots(28,10)
c 415 select(32,26)
c 416 nots(32,26)
c 417 select(51,75)
c 418 nots(51,75)
c 419 select(51,68)
c 420 nots(51,68)
c 421 select(32,48)
c 422 nots(32,48)
c 423 reach(48)
c 424 reach(75)
c 425 reach(10)
c 426 select(10,9)
c 427 nots(10,9)
c 428 select(75,3)
c 429 nots(75,3)
c 430 select(75,51)
c 431 nots(75,51)
c 432 select(48,32)
c 433 nots(48,32)
c 434 select(10,28)
c 435 nots(10,28)
c 436 select(48,58)
c 437 nots(48,58)
c 438 reach(58)
c 439 reach(3)
c 440 reach(9)
c 441 select(9,3)
c 442 nots(9,3)
c 443 select(58,48)
c 444 nots(58,48)
c 445 select(9,10)
c 446 nots(9,10)
c 447 select(3,9)
c 448 nots(3,9)
c 449 select(3,75)
c 450 nots(3,75)
c 451 select(3,37)
c 452 nots(3,37)
c 453 select(58,73)
c 454 nots(58,73)
c 455 reach(73)
c 456 reach(37)
c 457 select(37,3)
c 458 nots(37,3)
c 459 select(73,24)
c 460 nots(73,24)
c 461 select(73,58)
c 462 nots(73,58)
c 463 reach(24)
c 464 select(24,73)
c 465 nots(24,73)
c 466 select(24,55)
c 467 nots(24,55)
c 468 reach(55)
c 469 select(55,24)
c 470 nots(55,24)
c 471 select(55,40)
c 472 nots(55,40)
c 473 reach(40)
c 474 select(40,55)
c 475 nots(40,55)
c 556 edge(1,22)
c 557 edge(1,39)
c 558 edge(2,16)
c 559 edge(2,27)
c 560 edge(3,9)
c 561 edge(3,75)
c 562 edge(3,37)
c 563 edge(4,28)
c 564 edge(4,76)
c 565 edge(5,36)
c 566 edge(5,39)
c 567 edge(6,35)
c 568 edge(6,47)
c 569 edge(7,44)
c 570 edge(7,22)
c 571 edge(8,20)
c 572 edge(8,68)
c 573 edge(9,10)
c 574 edge(10,28)
c 575 edge(11,62)
c 576 edge(11,23)
c 577 edge(12,65)
c 578 edge(12,18)
c 579 edge(13,26)
c 580 edge(13,30)
c 581 edge(14,27)
c 582 edge(14,21)
c 583 edge(15,74)
c 584 edge(15,34)
c 585 edge(16,45)
c 586 edge(17,19)
c 587 edge(17,79)
c 588 edge(18,67)
c 589 edge(19,62)
c 590 edge(20,78)
c 591 edge(21,44)
c 592 edge(23,33)
c 593 edge(24,73)
c 594 edge(24,55)
c 595 edge(25,45)
c 596 edge(25,71)
c 597 edge(26,32)
c 598 edge(27,70)
c 599 edge(29,66)
c 600 edge(29,36)
c 601 edge(29,38)
c 602 edge(30,61)
c 603 edge(31,35)
c 604 edge(31,78)
c 605 edge(32,48)
c 606 edge(33,57)
c 607 edge(34,50)
c 608 edge(38,42)
c 609 edge(40,55)
c 610 edge(41,65)
c 611 edge(41,53)
c 612 edge(42,77)
c 613 edge(43,56)
c 614 edge(43,64)
c 615 edge(46,52)
c 616 edge(46,61)
c 617 edge(47,67)
c 618 edge(48,58)
c 619 edge(49,60)
c 620 edge(49,52)
c 621 edge(50,59)
c 622 edge(51,75)
c 623 edge(51,68)
c 624 edge(53,69)
c 625 edge(54,77)
c 626 edge(54,79)
c 627 edge(56,57)
c 628 edge(58,73)
c 629 edge(59,71)
c 630 edge(60,67)
c 631 edge(63,72)
c 632 edge(63,76)
c 633 edge(66,69)
c 634 edge(72,74)
c 635 reach(1)
c 636 goal(79)
194 0
-499 0
556 0
557 0
558 0
559 0
560 0
561 0
562 0
563 0
564 0
565 0
566 0
567 0
568 0
569 0
570 0
571 0
572 0
573 0
574 0
575 0
576 0
577 0
578 0
579 0
580 0
581 0
582 0
583 0
584 0
585 0
586 0
587 0
588 0
589 0
590 0
591 0
592 0
593 0
594 0
595 0
596 0
597 0
598 0
599 0
600 0
601 0
602 0
603 0
604 0
605 0
606 0
607 0
608 0
609 0
610 0
611 0
612 0
613 0
614 0
615 0
616 0
617 0
618 0
619 0
620 0
621 0
622 0
623 0
624 0
625 0
626 0
627 0
628 0
629 0
630 0
631 0
632 0
633 0
634 0
635 0
636 0
-1 0
-2 0
-3 0
-4 0
-5 0
-6 0
-7 0
-8 0
-9 0
-10 0
-11 0
-12 0
-13 0
-14 0
-15 0
-16 0
-17 0
-18 0
-19 0
-20 0
-21 0
-22 0
-23 0
-24 0
-25 0
-26 0
-27 0
-28 0
-29 0
-30 0
-31 0
-32 0
-33 0
-34 0
-35 0
-36 0
-37 0
-38 0
-39 0
-40 0
-41 0
-42 0
-43 0
-44 0
-45 0
-46 0
-47 0
-48 0
-49 0
-50 0
-51 0
-52 0
-53 0
-54 0
-55 0
-56 0
-57 0
-58 0
-59 0
-60 0
-61 0
-62 0
-63 0
-64 0
-65 0
-66 0
-67 0
-68 0
-69 0
-70 0
-71 0
-72 0
-73 0
-74 0
-75 0
-76 0
-77 0
-78 0
-79 0
-80 0
-81 0
-476 0
-477 0
-478 0
-479 0
-480 0
-481 0
-482 0
-483 0
-484 0
-485 0
-486 0
-487 0
-488 0
-489 0
-490 0
-491 0
-492 0
-493 0
-494 0
-495 0
-496 0
-497 0
-498 0
-789 0
-200 0
-682 0
201 0
-790 0
-202 0
-681 0
203 0
-500 0
-501 0
-502 0
-503 0
-504 0
-505 0
-506 0
-507 0
-508 0
-509 0
-510 0
-511 0
-512 0
-513 0
-514 0
-515 0
-516 0
-517 0
-518 0
-519 0
-520 0
-521 0
-522 0
-523 0
-524 0
-525 0
-526 0
-527 0
-528 0
-529 0
-530 0
-531 0
-532 0
-533 0
-534 0
-535 0
-536 0
-537 0
-538 0
-539 0
-540 0
-541 0
-542 0
-543 0
-544 0
-545 0
-546 0
-547 0
-548 0
-549 0
-550 0
-551 0
-552 0
-553 0
-554 0
-555 0
-217 0
-687 0
674 0
189 0
179 0
-190 0
-187 0
669 0
-675 0
188 0
170 0
160 0
-171 0
-168 0
660 0
-670 0
169 0
158 0
143 0
-159 0
-154 0
654 0
-661 0
155 0
141 0
128 0
-142 0
-133 0
649 0
-658 0
134 0
126 0
116 0
-127 0
-122 0
-124 0
-651 0
123 0
-650 0
125 0
-88 0
-91 0
-92 0
-95 0
-167 0
-216 0
-384 0
-458 0
-475 0
-218 0
-93 0
-89 0
-746 0
-695 0
-691 0
-688 0
-85 0
-83 0
-215 0
-659 0
-645 0
-787 0
-786 0
-782 0
-780 0
-772 0
-767 0
-761 0
-751 0
-744 0
-742 0
-738 0
-736 0
-733 0
-732 0
-729 0
-724 0
-723 0
-720 0
-718 0
-714 0
-712 0
-706 0
-705 0
-704 0
-699 0
-698 0
-692 0
-689 0
-684 0
-677 0
-672 0
-663 0
-655 0
-646 0
-472 0
-470 0
-467 0
-465 0
-462 0
-460 0
-454 0
-452 0
-450 0
-448 0
-446 0
-444 0
-442 0
-437 0
-435 0
-433 0
-431 0
-429 0
-427 0
-422 0
-420 0
-418 0
-416 0
-414 0
-412 0
-407 0
-405 0
-403 0
-401 0
-399 0
-397 0
-392 0
-390 0
-388 0
-386 0
-382 0
-380 0
-374 0
-372 0
-370 0
-368 0
-366 0
-364 0
-362 0
-360 0
-354 0
-353 0
-352 0
-350 0
-349 0
-369 0
-375 0
-383 0
-755 0
-373 0
-367 0
-348 0
-346 0
-391 0
-344 0
-342 0
-341 0
-400 0
-340 0
-334 0
-332 0
-331 0
-415 0
-330 0
-328 0
-326 0
-324 0
-323 0
-322 0
-432 0
-320 0
-314 0
-312 0
-443 0
-310 0
-308 0
-307 0
-461 0
-464 0
-306 0
-305 0
-471 0
-473 0
-474 0
-788 0
-84 0
-637 0
-101 0
-103 0
-105 0
-104 0
-111 0
-113 0
-115 0
-119 0
-121 0
-132 0
-136 0
-138 0
-140 0
-147 0
-149 0
-151 0
-153 0
-157 0
-112 0
-165 0
-114 0
-173 0
-175 0
-177 0
-182 0
-184 0
-186 0
-192 0
-197 0
-199 0
-205 0
-207 0
-212 0
-214 0
-100 0
-220 0
-222 0
-227 0
-229 0
-231 0
-233 0
-235 0
-237 0
-242 0
-244 0
-246 0
-248 0
-250 0
-252 0
-254 0
-260 0
-262 0
-264 0
-266 0
-268 0
-270 0
-272 0
-274 0
-280 0
-282 0
-284 0
-286 0
-288 0
-290 0
-292 0
-294 0
-300 0
-302 0
-304 0
-469 0
-139 0
-150 0
-164 0
-183 0
-196 0
-213 0
-228 0
-234 0
-236 0
-643 0
-641 0
-86 0
-94 0
-109 0
-99 0
-249 0
-251 0
-289 0
-82 0
-638 0
-102 0
-363 0
-351 0
-371 0
-347 0
-345 0
-343 0
-402 0
-385 0
-339 0
-333 0
-379 0
-417 0
-329 0
-327 0
-406 0
-430 0
-321 0
-319 0
-156 0
-161 0
-309 0
-466 0
-361 0
-303 0
-301 0
-299 0
-311 0
-291 0
-365 0
-287 0
-285 0
-283 0
-404 0
-279 0
-108 0
-110 0
-785 0
-267 0
-265 0
-263 0
-166 0
-459 0
-261 0
-259 0
-253 0
-387 0
-389 0
-241 0
-396 0
-773 0
-98 0
-451 0
-456 0
-359 0
-457 0
-784 0
-411 0
-642 0
-413 0
-644 0
-419 0
-647 0
-648 0
-398 0
-118 0
-653 0
-421 0
-769 0
-768 0
-232 0
-120 0
-766 0
-765 0
-763 0
-760 0
-671 0
-230 0
-759 0
-381 0
-756 0
-426 0
-775 0
-754 0
-135 0
-226 0
-748 0
-745 0
-137 0
-221 0
-685 0
-453 0
-219 0
-686 0
-694 0
-693 0
-740 0
-445 0
-428 0
-211 0
-737 0
-152 0
-662 0
-703 0
-206 0
-204 0
-680 0
-198 0
-735 0
-441 0
-710 0
-711 0
-434 0
-172 0
-191 0
-715 0
-716 0
-174 0
-185 0
-176 0
-436 0
-181 0
-678 0
-325 0
-313 0
-148 0
-281 0
-271 0
-269 0
-639 0
-90 0
-131 0
-447 0
-247 0
-243 0
-449 0
-721 0
-701 0
-725 0
-726 0
-697 0
-728 0
-719 0
-743 0
-690 0
-730 0
-783 0
-747 0
-640 0
-781 0
-776 0
-656 0
-752 0
-753 0
-683 0
-679 0
-665 0
-667 0
-758 0
-762 0
-700 0
-727 0
-731 0
-779 0
-676 0
-673 0
-652 0
-771 0
-657 0
-664 0
130 -146 -668 0
-87 97 0
666 -144 -146 -107 -130 -87 0
117 -107 666 -144 -87 0
96 -106 0
117 97 -107 0
106 666 -144 0
129 106 0
107 130 -117 0
87 -117 -668 -146 0
-146 145 0
144 -162 702 -225 -195 0
-129 144 0
-87 129 -130 145 -107 0
146 178 -163 0
-666 162 0
696 -210 -666 -180 0
117 145 -130 0
-668 163 0
-225 -129 702 -162 -195 0
208 146 -163 -193 0
180 -162 -129 0
162 -180 696 -210 0
668 -178 708 -240 -208 0
-178 668 193 0
162 -180 195 0
-195 180 702 -225 0
146 240 -223 -163 -193 0
146 -163 717 -223 -258 -193 0
-195 180 210 0
-273 -209 -238 0
-696 225 0
-209 -238 255 0
-178 668 223 -208 0
256 -696 707 -239 0
239 -245 0
209 -224 238 0
-224 209 275 -255 0
208 -223 717 -258 0
-256 -713 -245 0
277 -257 245 0
-702 -245 0
240 -258 717 0
225 -709 707 -239 0
-273 224 -238 0
-273 255 0
-707 257 0
-708 258 0
-709 256 0
-707 -277 -741 -318 0
-293 238 -255 0
-713 276 0
-293 275 0
276 -256 -702 0
245 -257 -750 -336 -297 0
-717 278 0
278 316 -298 0
296 -317 -739 0
337 -315 295 0
337 -315 273 -275 0
298 258 -278 0
-722 298 0
709 -276 -739 -317 0
-277 336 257 -318 0
336 -318 297 0
-357 273 293 -315 -337 -295 -275 0
-337 357 315 0
713 355 -335 -296 0
317 355 -335 0
277 356 -336 -297 0
318 356 -336 0
-734 316 0
376 -358 338 0
-739 335 0
257 -277 297 0
722 338 -316 0
-749 355 0
277 318 -297 0
357 -337 293 -295 0
-338 734 358 0
358 395 -376 0
713 -296 -749 -335 0
408 -393 739 -355 0
408 -393 377 0
741 -356 378 0
410 -394 378 0
-757 376 0
749 -377 -408 423 0
393 423 -408 0
734 -338 778 -440 -376 -409 0
-378 750 394 0
394 -410 424 0
-764 408 0
739 -355 -764 -393 0
410 -424 777 0
409 -395 757 0
409 -425 -778 774 0
-770 423 0
749 -377 -770 -408 0
395 425 -409 0
-774 424 0
750 -378 -774 -410 0
395 -440 778 -409 0
463 -455 764 -423 0
463 -455 438 0
-777 -778 0
-777 439 0
774 -777 757 0
774 757 -778 -425 -395 0
455 -463 468 0
107 -117 -668 -146 0
129 666 -144 0
144 -162 210 -195 0
129 -87 -130 -146 -107 0
117 -130 -146 0
208 -193 178 0
-210 195 696 0
193 -208 708 -240 0
210 -225 702 0
223 -240 708 0
-696 -709 707 -239 0
-209 224 0
239 -256 -713 0
-702 -256 -713 0
-702 239 0
-293 -255 -224 209 0
208 240 -223 0
-708 -278 -722 0
336 -318 -707 -277 0
256 225 707 -239 0
255 -238 224 0
-717 316 -298 0
-257 245 -336 356 -297 0
276 -256 -245 0
275 -255 238 0
257 -277 -741 -318 0
709 296 -276 0
258 -278 -722 0
273 295 -275 0
-717 -298 -734 0
293 315 -295 0
277 -297 -750 -336 0
-296 713 317 0
-741 336 0
709 335 -317 -276 0
376 -358 -316 722 0
734 395 -338 -376 0
-750 356 0
722 -316 -757 -358 0
410 -394 741 -356 0
739 377 -355 0
-410 750 424 -378 0
358 -376 778 -409 -440 0
749 393 -377 0
774 -777 409 0
741 -356 777 -424 -394 0
425 -440 778 0
774 -777 440 0
-778 439 0
438 -423 764 0
455 -438 770 0
107 87 -97 0
117 -107 129 -87 0
130 -117 87 -97 0
666 145 -130 -144 -107 -87 0
-666 144 0
97 -107 -146 -130 0
-130 145 -107 97 0
144 -162 180 0
-146 163 0
-668 178 0
195 -180 -666 0
-193 240 -223 178 0
210 -195 -129 -162 0
223 -208 193 0
-696 210 0
178 -193 717 -258 -223 0
-702 225 0
-708 240 0
239 276 -256 0
-245 257 0
-717 258 0
-709 276 0
-707 297 -277 0
-708 298 -278 0
-713 296 0
318 -297 245 -257 0
278 -298 -734 0
-722 316 0
296 -317 335 0
297 -318 -741 0
317 -335 -749 0
318 -336 -750 0
-734 338 0
-739 355 0
-741 356 0
338 -358 -757 0
734 425 -338 -376 -409 0
-749 377 0
-750 378 0
377 -393 -764 0
378 -394 -424 777 0
-757 395 0
393 -408 -770 0
425 -376 -409 358 0
394 -410 -774 0
-764 423 0
-777 424 0
409 -425 440 0
-770 438 0
-774 439 0
757 -425 440 -395 0
-778 440 0
764 -468 770 -463 -455 -423 0
770 468 -463 -438 0
